workspace_BA/ba-solver/src/main/resources/input_graphs/reference_vc/watts_strog_n_40_k_6_p_0.4_0.gr
p td 40 120
0 1
0 39
0 2
0 3
0 37
0 12
0 5
0 23
1 3
1 39
1 4
1 38
1 14
1 34
2 3
2 4
2 5
2 39
2 20
2 30
2 13
2 35
3 4
3 10
3 17
4 7
4 39
4 25
4 12
4 6
4 10
4 27
5 7
5 27
5 30
5 31
6 8
6 36
6 30
7 10
7 11
7 8
7 19
8 9
8 11
8 38
8 20
9 10
9 11
9 12
9 32
9 24
10 11
10 37
11 12
11 13
11 14
12 19
13 14
13 36
13 39
14 15
14 17
14 28
14 21
15 16
15 18
15 26
16 17
16 18
16 30
17 18
17 19
17 20
17 25
18 19
18 20
18 21
19 21
19 25
20 22
21 22
21 24
21 30
21 29
22 23
22 24
22 25
23 24
23 35
24 25
24 26
25 27
25 28
25 38
26 27
26 28
26 29
27 29
27 37
28 30
28 31
29 30
29 31
30 35
31 32
31 34
32 34
32 35
33 34
33 35
33 36
34 36
34 37
35 36
36 37
36 39
37 38
37 39
38 39
